(set-logic QF_S)
(declare-fun T_32 () Bool)
(declare-fun T_SELECT_6 () Bool)
(declare-fun PCTEMP_LHS_20 () Int)
(declare-fun T0_73 () String)
(declare-fun T1_73 () String)
(declare-fun T_30 () String)
(assert (= T_30 (str.++ T0_73 T1_73)))
(assert (not (str.in.re T1_73 (str.to.re "="))))
(assert T_32)
(assert (= T_32 (= PCTEMP_LHS_20 (- 1))))
(assert (= PCTEMP_LHS_20 (- 1)))
(assert (= T_SELECT_6 (not (= PCTEMP_LHS_20 (- 1)))))
(assert (= 0 (str.len T0_73))) ; len 0
(assert (not T_SELECT_6))
(check-sat)
